3
50
12096
[[272,532,415,549,445,308,116,414,123, 52,121,674,251,653,273,307,169,281,889,364,398,348,766,253, 26,970,830,298,785,684,619,945,710,198, 89,315,340,986,408,392,147,388,394,894,799,443, 69,832,424,803],
 [892,610,489,836,335, 73,366,888,412,262,823,477,956,547,644,966,887, 33,921,573,454,865,109,121, 70,821,906,141, 45,592,445,790,688,  9, 85,373,759,331,907,619,920, 52,732,894,690,428,243, 84,674,135],
 [306,919,829, 56,520,467,926,286,596,908,561,969,344,528,103,530,754,767,168,785,540,944,909,241,798,798,893,415,685,274,166,658,874,134, 75,539,492,251,760,671,616,748,296,621,975, 30,214,325,955,195]]
[490,241,715,635,717,786,386,353,517,631,433, 57,916,630,628,563,740,291,251,190,986,446, 69,230,924,989,737,376,561,548,500,572,875,136,191,543,240,250,110,136,712,210,309,461,595,590,141,712,492,382]